c nIsolatedPIs 0
c maxPI 8
p cnf 22 43
c gate 9 1 -6 0
1 -9 0
-6 -9 0
-1 6 9 0
c gate 10 -1 6 0
-1 -10 0
6 -10 0
1 -6 10 0
c gate 11 -9 -10 0
-9 -11 0
-10 -11 0
9 10 11 0
c gate 12 -2 7 0
-2 -12 0
7 -12 0
2 -7 12 0
c gate 13 8 12 0
8 -13 0
12 -13 0
-8 -12 13 0
c gate 14 -11 13 0
-11 -14 0
13 -14 0
11 -13 14 0
c gate 15 -1 2 0
-1 -15 0
2 -15 0
1 -2 15 0
c gate 16 -6 -7 0
-6 -16 0
-7 -16 0
6 7 16 0
c gate 17 -8 16 0
-8 -17 0
16 -17 0
8 -16 17 0
c gate 18 15 17 0
15 -18 0
17 -18 0
-15 -17 18 0
c gate 19 -14 -18 0
-14 -19 0
-18 -19 0
14 18 19 0
c gate 20 3 4 0
3 -20 0
4 -20 0
-3 -4 20 0
c gate 21 5 20 0
5 -21 0
20 -21 0
-5 -20 21 0
c gate 22 -19 21 0
-19 -22 0
21 -22 0
19 -21 22 0
c PO
22 0
